p tw 40 84
0 1
0 5
0 8
0 24
0 7
0 6
1 6
1 16
1 29
1 22
1 15
2 3
2 38
2 25
2 24
3 18
3 11
3 16
3 4
3 21
3 17
4 5
4 6
4 20
4 28
4 23
4 8
4 15
5 13
5 20
5 31
5 28
6 19
6 32
7 8
7 16
8 10
8 14
8 13
9 10
9 23
9 27
9 25
9 19
10 24
10 11
11 12
11 29
11 22
11 37
12 19
12 23
13 16
14 15
14 28
14 20
15 31
15 36
15 27
15 16
16 17
16 20
16 24
17 19
18 22
18 29
19 23
20 26
21 22
21 28
21 37
22 26
22 25
23 30
23 35
23 39
24 25
24 26
27 32
27 31
27 28
29 32
33 34
35 37
